NAME : ClusterId_1050 
COMMENT : (Gillet and Johnson) 
TYPE : CVRP 
DIMENSION : 12 
EDGE_WEIGHT_TYPE : EUC_2D 
CAPACITY : 500 
NODE_COORD_SECTION 
1050 1321 9161 
240 1351 9424 
384 1014 9174 
66 1097 9228 
828 1498 9352 
237 1365 9168 
244 1206 9043 
505 1001 8885 
408 1177 8996 
264 1549 9010 
423 1493 8838 
582 1598 8844 
DEMAND_SECTION 
1050 623
240 34
384 52
66 28
828 53
237 28
244 31
505 48
408 30
264 51
423 42
582 40
DEPOT_SECTION 
1050
 -1
EOF